c Output_time 26.03.2020 18:08:27_+0100 1585242507021062865
c ** Program information **
c program_name                          "QBRG_debug"
c version                               "0.3.20"
c date                                  "25.3.2020"
c gid_id                                "673970833836058123f633335630c185360d632e"
c author                                "Oliver Kullmann"
c url                                   "https://github.com/OKullmann/oklibrary/blob/master/Satisfiability/Transformers/Generators/Random/QBRG.cpp"
c ** Machine information **
c machine_name                          "chyna-Lenovo-G50-70"
c bogomips                              3791.08
c ** Compilation information **
c compiler_version                      "g++ 7.5.0"
c compilation_date                      "Mar_26_2020 11:16:30"
c compilation_options                   "--std=c++17 -pedantic -fmax-errors=5 -Wall -Wextra -g -D_GLIBCXX_DEBUG"
c NDEBUG                                0
c OPTIMIZE                              0
c ** Parameters **
c command-line                          "./QBRG_debug" "a40 40" "205*1,1|2-2,1" "" "1,t" ""
c output                                "QuBlRaGe_80_205_1585242507020904660.qdimacs"
c options                               "filtered,renamed"
c num_quantifier_blocks                 2
c  quantifier_blocks                    1:a1-40 2:e41-80
c num_clause-blocks                     1
c  clause-blocks                        205 * {1-40,1,1/2} | {41-80,1,1/2}
c num_e-seeds                           23+2=25
c  e-seeds                              1 0 1 0 3 80 2 40 0 40 1 205 2 1 1 1 1 2 2 2 1 1 2 1 1585242507020904270
p cnf 80 205
a 1 2 3 4 5 6 7 8 9 10 11 12 13 14 15 16 17 18 19 20 21 22 23 24 25 26 27 28 29 30 31 32 33 34 35 36 37 38 39 40 0
e 41 42 43 44 45 46 47 48 49 50 51 52 53 54 55 56 57 58 59 60 61 62 63 64 65 66 67 68 69 70 71 72 73 74 75 76 77 78 79 80 0
-7 -41 0
-22 -41 0
5 41 0
-15 -42 0
1 42 0
3 42 0
10 43 0
-16 43 0
17 43 0
-3 -44 0
12 44 0
-37 44 0
11 -45 0
-21 -45 0
22 -45 0
29 -46 0
7 46 0
-8 46 0
-18 46 0
39 46 0
16 -47 0
33 -47 0
-6 -48 0
12 -48 0
15 -48 0
-20 -48 0
15 48 0
-20 48 0
27 48 0
-28 48 0
28 48 0
32 48 0
-34 48 0
-5 -49 0
-6 -49 0
-37 -49 0
39 -49 0
-15 49 0
2 -50 0
5 -50 0
6 -50 0
-25 -50 0
28 -50 0
34 50 0
3 -51 0
11 51 0
-34 51 0
-6 -52 0
10 -52 0
30 -52 0
39 -52 0
-17 52 0
25 52 0
32 52 0
36 52 0
29 -53 0
31 -53 0
-32 -53 0
-36 -53 0
-26 53 0
37 53 0
28 -54 0
39 -54 0
5 54 0
-10 54 0
12 54 0
18 54 0
2 -55 0
40 -55 0
-12 55 0
-21 55 0
26 55 0
30 55 0
-3 -56 0
-4 -56 0
6 -56 0
9 -56 0
23 -56 0
-40 -56 0
-24 56 0
-31 -57 0
4 57 0
12 57 0
-28 57 0
35 57 0
-38 57 0
-40 57 0
1 -58 0
14 -58 0
-34 58 0
38 58 0
12 -59 0
-19 -59 0
-38 -59 0
38 -59 0
-21 59 0
-5 -60 0
5 60 0
11 60 0
-17 60 0
39 60 0
-3 -61 0
-11 -61 0
26 -61 0
29 -61 0
-40 -61 0
-14 61 0
18 61 0
32 61 0
39 61 0
6 -62 0
20 -62 0
-32 -62 0
-18 62 0
33 62 0
-40 62 0
23 -63 0
2 -64 0
7 -64 0
14 -64 0
31 -64 0
-38 -64 0
40 64 0
-3 -65 0
31 -65 0
1 65 0
-16 65 0
-25 65 0
-16 -66 0
-5 66 0
18 66 0
-20 66 0
-23 66 0
5 -67 0
-25 67 0
2 -68 0
-12 -68 0
-19 -68 0
25 -68 0
28 -68 0
14 68 0
31 68 0
2 -69 0
-8 -69 0
21 -69 0
-2 69 0
-8 69 0
8 69 0
-4 70 0
28 70 0
-32 70 0
33 70 0
-13 -71 0
15 -71 0
-29 -71 0
30 -71 0
33 -71 0
37 -71 0
39 -71 0
1 71 0
-14 71 0
-18 71 0
20 71 0
2 -72 0
5 72 0
22 72 0
39 72 0
-18 -73 0
24 -73 0
-30 -73 0
-12 73 0
15 73 0
30 73 0
2 -74 0
-27 -74 0
16 74 0
-30 74 0
12 -75 0
-8 75 0
13 75 0
-16 75 0
25 75 0
-18 -76 0
-4 76 0
10 76 0
-22 76 0
23 76 0
-33 76 0
-8 77 0
11 77 0
-22 77 0
-35 77 0
-6 -78 0
-29 -78 0
-12 78 0
17 78 0
-21 78 0
36 78 0
-11 -79 0
-13 -79 0
28 -79 0
-29 -79 0
2 79 0
-33 79 0
8 80 0
